50, 7668
4, 174
14, 609
18, 783
20, 870
630, 84
630, 84
16, 696
810, 108
8, 348
810, 108
900, 120
900, 120
630, 84
270, 36
360, 48
900, 120
180, 24
14, 609
90, 12
90, 12
540, 72
450, 60
20, 870
360, 48
270, 36
12, 522
630, 84
90, 12
8, 348
450, 60
900, 120
10, 435
18, 783
12, 522
8, 348
4, 174
540, 72
14, 609
14, 609
450, 60
20, 870
18, 783
540, 72
900, 120
450, 60
14, 609
720, 96
630, 84
90, 12
14, 609
